50
    1   446   204
    2   319   448
    3   420   154
    4   300   363
    5   406   428
    6   441   294
    7    70   301
    8    60   108
    9   295   269
   10    83    70
   11    95     8
   12   195   183
   13   463   196
   14   242   116
   15   171    61
   16   352   301
   17   358   481
   18   182   396
   19   387   497
   20   106   458
   21   470   237
   22   455   344
   23    52   156
   24   264   331
   25   493   465
   26   363   132
   27    88    70
   28   220   136
   29   482   310
   30   261   171
   31   293   398
   32   296   300
   33   372   240
   34   347   117
   35   268   244
   36   285   109
   37   241   448
   38   187    53
   39   339   160
   40   408    59
   41   320   451
   42   442   402
   43    18   230
   44   127   134
   45    23   231
   46   375    47
   47    13   358
   48     1    26
   49    93   159
   50   186   168
4007
